c WARNING: for repeatability, setting FPU to use double precision
d VARIABLES            216460       
d CONSTRAINTS          802116       
c ============================[ Problem Statistics ]=============================
c |                                                                             |
c |  Number of variables:        216460                                         |
c |  Number of clauses:          802116                                         |
c |  Parse time:                   0.14 s                                       |
c |                                                                             |
c ============================[ Search Statistics ]==============================
c | Conflicts |          ORIGINAL         |          LEARNT          | Progress |
c |           |    Vars  Clauses Literals |    Limit  Clauses Lit/Cl |          |
c ===============================================================================
c |       100 |  180209   709674  1780907 |   260213      100     95 | 16.747 % |
c |       250 |  180209   709674  1780907 |   286235      250     52 | 16.747 % |
c |       475 |  180209   709674  1780907 |   314858      475     31 | 16.747 % |
c |       812 |  180209   709674  1780907 |   346344      812     25 | 16.747 % |
c |      1318 |  180209   709674  1780907 |   380979     1318     16 | 16.747 % |
c |      2077 |  180209   709674  1780907 |   419076     2077     14 | 16.747 % |
c |      3216 |  180209   709674  1780907 |   460984     3216     19 | 16.747 % |
c |      4924 |  180209   709674  1780907 |   507083     4924     19 | 16.747 % |
c |      7486 |  180209   709674  1780907 |   557791     7486     17 | 16.747 % |
c |     11330 |  180209   709674  1780907 |   613570    11330     16 | 16.747 % |
c |     17096 |  180209   709674  1780907 |   674927    17096     27 | 16.747 % |
c |     25745 |  180209   709674  1780907 |   742420    25745     43 | 16.747 % |
c |     38719 |  180209   709674  1780907 |   816662    38719     69 | 16.747 % |
c |     58180 |  180209   709674  1780907 |   898328    58180     62 | 16.747 % |
c |     87372 |  180209   709674  1780907 |   988161    87372     70 | 16.747 % |
c |    131161 |  180209   709674  1780907 |  1086977   131161     79 | 16.747 % |
c |    196845 |  180209   709674  1780907 |  1195675   196845     94 | 16.747 % |
c |    295371 |  180209   709674  1780907 |  1315242   295371    112 | 16.747 % |
c |    443160 |  180209   709674  1780907 |  1446767   443160    122 | 16.747 % |
c |    664843 |  180209   709674  1780907 |  1591443   664843    150 | 16.747 % |
c ===============================================================================
c restarts              : 1914
c conflicts             : 879911         (1177 /sec)
c decisions             : 5345139        (0.00 % random) (7148 /sec)
c propagations          : 2721476990     (3639240 /sec)
c conflict literals     : 137293068      (22.12 % deleted)
d RESTARTS             1914
d FAILURES             879911       
d NODES                5345139      
d BACKTRACKS           5345139      
d PROPAGATIONS         2721476990   
d NOGOODSIZE           156.03 
d MEMORY               653.00 
d TIME                 747.815 

s SATISFIABLE
